results/res_prop_muc/res_Cimatti_mathsat_cores/QF_LRA/clocksynchro_4clocks.main_invar.base.smt.smt2.res
unsat
( c11
  c118
  c13
  c15
  c186
  c2
  c254
  c289
  c3
  c337
  c338
  c339
  c340
  c345
  c346
  c347
  c348
  c349
  c350
  c351
  c352
  c385
  c387
  c389
  c390
  c391
  c392
  c393
  c394
  c395
  c396
  c4
  c401
  c415
  c419
  c422
  c428
  c434
  c440
  c446
  c453
  c459
  c465
  c471
  c476
  c480
  c484
  c488
  c492
  c496
  c499
  c5
  c50
  c502
  c505
  c508
  c514
  c520
  c526
  c532
  c538
  c544
  c550
  c557
  c563
  c569
  c575
  c581
  c585
  c589
  c593
  c596
  c6
  c603
  c606
  c609
  c612
  c613
  c7
  c8
  c9 )
